1630476000
1630504800
1630562400
1630591200
1630648800
1630684800
1630908000
1630936800
1630994400
1631023200
1631080800
1631109600
1631167200
1631196000
1631253600
1631282400
1631512800
1631541600
1631599200
1631628000
1631685600
1631714400
1631772000
1631800800
1631858400
1631887200
1632117600
1632146400
1632204000
1632232800
1632290400
1632319200
1632376800
1632405600
1632463200
1632492000
1632722400
1632726000
1632808800
1632837600
1632895200
1632898800
1632736800
1632751200
1632909600
1632924000
